<number of tasks>
250

<cycle time>
1000

<order strength>
0.6


<task times>
1 311
2 46
3 109
4 533
5 151
6 112
7 151
8 443
9 136
10 162
11 42
12 25
13 194
14 481
15 376
16 267
17 64
18 547
19 141
20 485
21 234
22 74
23 282
24 80
25 177
26 251
27 107
28 70
29 226
30 180
31 429
32 481
33 172
34 127
35 27
36 130
37 236
38 93
39 446
40 102
41 180
42 278
43 31
44 493
45 95
46 164
47 140
48 165
49 344
50 167
51 54
52 116
53 45
54 528
55 81
56 48
57 75
58 518
59 333
60 174
61 79
62 75
63 188
64 27
65 236
66 528
67 541
68 211
69 52
70 182
71 521
72 45
73 391
74 591
75 544
76 208
77 56
78 29
79 247
80 175
81 164
82 308
83 165
84 262
85 312
86 284
87 564
88 114
89 240
90 239
91 62
92 168
93 209
94 302
95 271
96 38
97 475
98 323
99 534
100 81
101 142
102 396
103 68
104 78
105 55
106 205
107 224
108 197
109 126
110 138
111 403
112 520
113 32
114 194
115 71
116 138
117 177
118 310
119 136
120 344
121 472
122 208
123 26
124 355
125 518
126 251
127 363
128 331
129 168
130 41
131 203
132 107
133 255
134 181
135 152
136 29
137 409
138 154
139 33
140 142
141 244
142 367
143 130
144 80
145 173
146 166
147 451
148 296
149 43
150 477
151 425
152 386
153 237
154 539
155 63
156 517
157 49
158 110
159 216
160 61
161 318
162 252
163 418
164 131
165 186
166 119
167 500
168 270
169 101
170 74
171 40
172 290
173 169
174 247
175 59
176 280
177 307
178 264
179 225
180 175
181 136
182 147
183 398
184 164
185 158
186 109
187 321
188 327
189 509
190 262
191 487
192 103
193 134
194 134
195 74
196 77
197 50
198 119
199 185
200 256
201 52
202 63
203 170
204 558
205 88
206 276
207 231
208 193
209 501
210 566
211 357
212 528
213 309
214 54
215 192
216 111
217 84
218 114
219 133
220 75
221 513
222 231
223 505
224 396
225 161
226 27
227 201
228 21
229 497
230 266
231 320
232 209
233 136
234 107
235 382
236 68
237 55
238 245
239 88
240 72
241 126
242 141
243 131
244 26
245 45
246 105
247 318
248 127
249 96
250 379

<precedence relations>
1,13
2,13
3,13
4,13
5,36
6,36
7,36
8,222
9,12
9,14
9,15
9,17
9,18
9,19
9,20
10,11
10,14
10,16
10,22
10,38
11,85
12,85
13,22
13,23
13,24
13,25
13,26
13,27
13,28
13,30
13,31
13,32
14,36
15,36
16,36
17,36
18,185
19,99
20,21
20,29
20,34
21,70
22,85
23,85
24,36
25,36
26,51
26,54
26,58
26,65
27,33
27,34
27,135
28,33
28,38
28,40
28,66
28,87
28,89
29,33
29,37
29,38
29,98
29,99
30,197
30,242
30,243
31,34
31,35
31,39
31,87
32,69
32,104
32,117
33,70
34,122
35,85
36,41
36,42
36,43
36,44
36,45
36,46
36,47
36,50
37,152
38,117
39,99
40,41
40,48
40,49
40,155
41,116
42,85
43,117
44,51
44,114
44,118
44,119
45,52
45,53
45,56
45,57
45,58
46,55
46,102
47,198
48,198
49,54
50,175
51,70
52,122
53,85
54,152
55,198
56,99
57,62
57,99
58,59
58,60
58,61
59,116
60,117
61,64
61,66
61,69
62,63
62,65
62,67
62,68
63,70
64,85
65,117
66,117
67,185
68,73
68,75
68,79
69,71
69,72
69,73
69,74
69,76
69,77
69,78
70,80
70,81
70,82
70,83
70,84
70,86
70,115
71,122
72,173
73,85
74,85
75,85
76,99
77,85
77,87
78,97
79,85
79,88
79,89
79,90
79,120
80,117
81,162
81,184
82,101
83,91
83,170
84,100
84,136
85,91
85,92
85,93
85,94
85,95
85,96
85,97
86,152
87,99
88,97
88,98
89,147
90,220
91,116
92,198
93,174
93,175
94,102
94,103
94,105
94,136
95,114
96,102
97,152
98,152
99,107
99,108
99,109
99,110
99,111
99,112
100,104
100,106
100,113
101,102
101,103
102,122
103,116
104,116
105,222
106,117
107,115
108,114
108,118
109,155
109,166
109,172
110,167
112,119
113,120
113,121
114,122
115,173
116,123
116,124
116,125
116,126
116,127
117,128
117,129
117,130
117,131
117,132
117,133
117,134
117,144
117,148
118,135
118,200
119,136
119,145
119,146
120,122
121,122
122,137
122,138
122,139
122,140
122,141
122,142
122,143
123,249
124,144
124,174
124,175
124,189
126,219
127,171
128,169
128,176
129,223
130,227
130,247
131,170
132,155
132,161
133,164
135,184
136,183
137,152
138,190
139,146
139,149
140,186
141,145
141,150
141,151
142,147
142,148
142,155
143,148
145,173
146,222
147,152
148,152
149,152
150,153
150,154
151,155
151,186
151,200
152,157
152,158
152,159
152,160
152,161
152,164
153,156
153,163
154,162
154,171
155,217
156,222
157,182
158,165
158,166
158,167
158,168
161,198
162,185
163,189
163,222
164,168
165,185
166,169
166,170
167,169
167,171
167,172
168,173
169,173
170,175
171,176
171,188
172,174
172,175
172,177
173,178
173,179
173,180
173,181
174,183
174,215
175,182
175,184
176,182
177,189
178,220
178,223
179,189
180,187
180,188
180,189
182,185
184,186
185,190
185,191
185,192
185,193
185,194
185,195
186,190
186,195
187,197
187,198
188,196
188,199
189,225
190,198
191,216
191,217
192,248
193,200
193,248
194,198
196,244
197,199
198,201
198,202
198,203
198,204
198,205
198,206
198,207
198,208
198,209
198,210
198,211
198,212
198,213
198,214
198,215
199,215
200,246
203,223
204,223
205,216
205,220
206,220
207,219
207,221
208,221
208,223
209,217
209,218
216,222
217,222
219,222
219,223
220,225
221,224
221,226
221,227
222,228
222,229
222,230
222,231
222,232
222,233
222,234
222,235
222,236
222,237
222,238
222,239
222,240
222,241
224,249
231,242
233,243
234,244
236,248
236,249
237,242
237,243
238,245
238,250
240,248
241,248
242,246
244,247
246,249
246,250
247,248

<end>
